50	10004812

100018 657
100001 702
100000 870
100066 668
100003 243
100023 665
100081 746
100071 735
100034 871
100098 969
100000 100
100033 873
100046 931
100064 823
100041 318
100005 140
100052 113
100007 531
100055 509
100030 634
100050 243
100077 476
100073 505
100098 61
100013 555
100099 226
100073 71
100094 155
100061 578
100018 320
100092 633
100042 881
100025 670
100070 982
100087 187
100086 404
100021 893
100089 747
100081 993
100095 87
100055 736
100016 645
100094 530
100046 724
100001 20
100006 253
100025 249
100004 951
100030 439
100057 92
